Route #1: 29 14 13 59 57 16 64
Route #2: 6 49 10 26 22 55 46 23
Route #3: 48 34 19 27 3 67 42 44 17
Route #4: 56 53 43 45 7 37 41 65 40
Route #5: 32 52 60 25 30 18
Route #6: 38 66 33 24 9 21 11
Route #7: 15 51 2 50 36 20 5 47
Route #8: 28 39 8 54 35
Route #9: 63 62 58 31 4 61
Route #10: 12
cost 1259
